output_file = "12-1-C-100-1.40-140.csv";

n_days = 100;
n_shelf_types = 2;
n_crops = 1;

num_shelves = [
    8, 4
];


crop_shelf_type_compatible = [
    [1, 1]
];

crop_growth_days = [15];

n_configurations = 2;

crop_growth_day_config = [
    [1, 1, 1, 2, 2, 2, 2, 2, 2, 2, 2, 2, 2, 2, 2]
];

capacity = [
    [12, 12],
[12, 12]
];

demand = [
    [0, 0, 0, 0, 0, 0, 0, 0, 0, 0, 0, 0, 0, 0, 0, 32, 35, 62, 0, 37, 0, 0, 0, 30, 0, 0, 26, 16, 0, 29, 43, 37, 35, 0, 0, 0, 0, 0, 37, 82, 0, 23, 0, 0, 0, 0, 71, 25, 21, 0, 0, 40, 32, 0, 0, 0, 0, 32, 39, 0, 0, 0, 0, 0, 0, 36, 0, 0, 0, 0, 0, 30, 0, 36, 82, 0, 0, 0, 0, 0, 0, 81, 0, 15, 32, 0, 0, 49, 0, 0, 0, 28, 0, 0, 0, 0, 0, 0, 0, 39]
];


missed_demand_penalty = [
    [0, 0, 0, 0, 0, 0, 0, 0, 0, 0, 0, 0, 0, 0, 0, 1, 1, 1, 0, 1, 0, 0, 0, 1, 0, 0, 1, 1, 0, 1, 1, 1, 1, 0, 0, 0, 0, 0, 1, 1, 0, 1, 0, 0, 0, 0, 1, 1, 1, 0, 0, 1, 1, 0, 0, 0, 0, 1, 1, 0, 0, 0, 0, 0, 0, 1, 0, 0, 0, 0, 0, 1, 0, 1, 1, 0, 0, 0, 0, 0, 0, 1, 0, 1, 1, 0, 0, 1, 0, 0, 0, 1, 0, 0, 0, 0, 0, 0, 0, 1]
];